k = 16;
b = 8;
AtomicConstraints =  [|
5, 1|
	5, 2|
	6, 1|
	6, 2|
	6, 3|
	7, 1|
	7, 2|
	7, 3|
	7, 4|
	8, 1|
	8, 2|
	8, 3|
	8, 4|];
DisjunctiveConstraints =  [|2, 3, 2, 1|
	3, 4, 3, 2|
	5, 9, 5, 1|
	6, 7, 6, 5|
	6, 10, 6, 2|
	7, 8, 7, 6|
	7, 11, 7, 3|
	8, 12, 8, 4|
	10, 11, 10, 9|
	11, 12, 11, 10|
	12, 13, 12, 11|
	13, 14, 13, 12|
	14, 15, 14, 13|
	15, 16, 15, 14|];
SoftAtomicConstraints =  [|
2, 1|
3, 2|
4, 3|
6, 5|
7, 6|
8, 7|
10, 9|
11, 10|
12, 11|
13, 12|
14, 13|
15, 14|
16, 15|];
DirectSuccessors =  [1,
2,
3,
4,
5,
6,
7,
8,
9,
10,
11,
12,
13,
14,
15,
16];
